(set-logic QF_LRA)
(declare-fun fluent_started_i0_t2@1 () Bool)
(declare-fun fluent_treated_i0_t0@1 () Bool)
(declare-fun fluent_started_i0_t0@0 () Bool)
(declare-fun fluent_started_i0_t1@0 () Bool)
(declare-fun fluent_started_i0_t2@0 () Bool)
(declare-fun fluent_treated_i0_t1@1 () Bool)
(declare-fun fluent_ready_i0_t0@0 () Bool)
(declare-fun fluent_ready_i0_t1@0 () Bool)
(declare-fun fluent_ready_i0_t2@0 () Bool)
(declare-fun fluent_treated_i0_t2@1 () Bool)
(declare-fun fluent_busy_@0 () Bool)
(declare-fun fluent_treated_i0_t0@0 () Bool)
(declare-fun fluent_treated_i0_t1@0 () Bool)
(declare-fun fluent_treated_i0_t2@0 () Bool)
(declare-fun fluent_ready_i0_t0@1 () Bool)
(declare-fun fluent_ready_i0_t1@1 () Bool)
(declare-fun fluent_ready_i0_t2@1 () Bool)
(declare-fun act_make_treatment@1 () Bool)
(declare-fun fluent_counter_t0@0 () Real)
(declare-fun fluent_counter_t1@0 () Real)
(declare-fun fluent_counter_t2@0 () Real)
(declare-fun dur_make_treatment@1 () Real)
(declare-fun t@1 () Real)
(declare-fun parameter_make_treatment_t@1 () Real)
(declare-fun parameter_make_treatment_i@1 () Real)
(declare-fun __z3_2 () Real)
(declare-fun parameter_make_treatment_next@1 () Real)
(declare-fun __z3_3 () Real)
(declare-fun fluent_counter_t0@1 () Real)
(declare-fun fluent_counter_t1@1 () Real)
(declare-fun fluent_counter_t2@1 () Real)
(declare-fun __z3_0 () Real)
(declare-fun fluent_busy_@1 () Bool)
(declare-fun __z3_1 () Real)
(declare-fun fluent_started_i0_t0@1 () Bool)
(declare-fun fluent_started_i0_t1@1 () Bool)
(assert (let ((.def_0 (= __z3_1 __z3_3))) (let ((.def_1 (= parameter_make_treatment_t@1 3.0))) (let ((.def_2 (or .def_1 .def_0))) (let ((.def_3 (= __z3_1 fluent_counter_t2@1))) (let ((.def_4 (not .def_1))) (let ((.def_5 (or .def_4 .def_3))) (let ((.def_6 (= __z3_3 fluent_counter_t0@1))) (let ((.def_7 (= parameter_make_treatment_t@1 2.0))) (let ((.def_8 (or .def_7 .def_6))) (let ((.def_9 (= __z3_3 fluent_counter_t1@1))) (let ((.def_10 (not .def_7))) (let ((.def_11 (or .def_10 .def_9))) (let ((.def_12 (= __z3_0 __z3_2))) (let ((.def_13 (or .def_1 .def_12))) (let ((.def_14 (= __z3_0 fluent_counter_t2@0))) (let ((.def_15 (or .def_4 .def_14))) (let ((.def_16 (= __z3_2 fluent_counter_t0@0))) (let ((.def_17 (or .def_7 .def_16))) (let ((.def_18 (= __z3_2 fluent_counter_t1@0))) (let ((.def_19 (or .def_10 .def_18))) (let ((.def_20 (= parameter_make_treatment_i@1 0.0))) (let ((.def_21 (= parameter_make_treatment_t@1 1.0))) (let ((.def_22 (or .def_21 .def_7 .def_1))) (let ((.def_23 (<= fluent_counter_t2@1 31.0))) (let ((.def_24 (<= 0.0 fluent_counter_t2@1))) (let ((.def_25 (<= fluent_counter_t1@1 31.0))) (let ((.def_26 (<= 0.0 fluent_counter_t1@1))) (let ((.def_27 (<= fluent_counter_t0@1 31.0))) (let ((.def_28 (= parameter_make_treatment_next@1 3.0))) (let ((.def_29 (= parameter_make_treatment_next@1 2.0))) (let ((.def_30 (= parameter_make_treatment_next@1 1.0))) (let ((.def_31 (or .def_30 .def_29 .def_28))) (let ((.def_32 (<= 0.0 fluent_counter_t0@1))) (let ((.def_33 (and act_make_treatment@1 true .def_1))) (let ((.def_34 (= fluent_counter_t2@0 fluent_counter_t2@1))) (let ((.def_35 (not .def_34))) (let ((.def_36 (=> .def_35 .def_33))) (let ((.def_37 (and act_make_treatment@1 true .def_7))) (let ((.def_38 (= fluent_counter_t1@0 fluent_counter_t1@1))) (let ((.def_39 (not .def_38))) (let ((.def_40 (=> .def_39 .def_37))) (let ((.def_41 (and act_make_treatment@1 true .def_21))) (let ((.def_42 (= fluent_counter_t0@0 fluent_counter_t0@1))) (let ((.def_43 (not .def_42))) (let ((.def_44 (=> .def_43 .def_41))) (let ((.def_45 (+ t@1 10.0))) (let ((.def_46 (= t@1 .def_45))) (let ((.def_47 (and act_make_treatment@1 true .def_46 .def_20 .def_28))) (let ((.def_48 (= fluent_ready_i0_t2@0 fluent_ready_i0_t2@1))) (let ((.def_49 (not .def_48))) (let ((.def_50 (=> .def_49 .def_47))) (let ((.def_51 (and act_make_treatment@1 true .def_46 .def_20 .def_29))) (let ((.def_52 (= fluent_ready_i0_t1@0 fluent_ready_i0_t1@1))) (let ((.def_53 (not .def_52))) (let ((.def_54 (=> .def_53 .def_51))) (let ((.def_55 (and act_make_treatment@1 true .def_46 .def_20 .def_30))) (let ((.def_56 (= fluent_ready_i0_t0@0 fluent_ready_i0_t0@1))) (let ((.def_57 (not .def_56))) (let ((.def_58 (=> .def_57 .def_55))) (let ((.def_59 (and act_make_treatment@1 true .def_20 .def_1))) (let ((.def_60 (= fluent_started_i0_t2@0 fluent_started_i0_t2@1))) (let ((.def_61 (not .def_60))) (let ((.def_62 (=> .def_61 .def_59))) (let ((.def_63 (and act_make_treatment@1 true .def_20 .def_7))) (let ((.def_64 (= fluent_started_i0_t1@0 fluent_started_i0_t1@1))) (let ((.def_65 (not .def_64))) (let ((.def_66 (=> .def_65 .def_63))) (let ((.def_67 (and act_make_treatment@1 true .def_20 .def_21))) (let ((.def_68 (= fluent_started_i0_t0@0 fluent_started_i0_t0@1))) (let ((.def_69 (not .def_68))) (let ((.def_70 (=> .def_69 .def_67))) (let ((.def_71 (+ t@1 4.0))) (let ((.def_72 (= t@1 .def_71))) (let ((.def_73 (and act_make_treatment@1 true .def_72 .def_20 .def_1))) (let ((.def_74 (= fluent_treated_i0_t2@0 fluent_treated_i0_t2@1))) (let ((.def_75 (not .def_74))) (let ((.def_76 (=> .def_75 .def_73))) (let ((.def_77 (and act_make_treatment@1 true .def_72 .def_20 .def_7))) (let ((.def_78 (= fluent_treated_i0_t1@0 fluent_treated_i0_t1@1))) (let ((.def_79 (not .def_78))) (let ((.def_80 (=> .def_79 .def_77))) (let ((.def_81 (and act_make_treatment@1 true .def_72 .def_20 .def_21))) (let ((.def_82 (= fluent_treated_i0_t0@0 fluent_treated_i0_t0@1))) (let ((.def_83 (not .def_82))) (let ((.def_84 (=> .def_83 .def_81))) (let ((.def_85 (and act_make_treatment@1 true .def_72))) (let ((.def_86 (and act_make_treatment@1 true))) (let ((.def_87 (and .def_86 .def_85))) (let ((.def_88 (not .def_87))) (let ((.def_89 (or .def_86 .def_85))) (let ((.def_90 (= fluent_busy_@0 fluent_busy_@1))) (let ((.def_91 (not .def_90))) (let ((.def_92 (=> .def_91 .def_89))) (let ((.def_93 (<= 0.0 t@1))) (let ((.def_94 (and .def_20 .def_29))) (let ((.def_95 (or .def_94 fluent_ready_i0_t0@1))) (let ((.def_96 (not .def_94))) (let ((.def_97 (or .def_96 fluent_ready_i0_t1@1))) (let ((.def_98 (and .def_97 .def_95))) (let ((.def_99 (and .def_20 .def_28))) (let ((.def_100 (or .def_99 .def_98))) (let ((.def_101 (not .def_99))) (let ((.def_102 (or .def_101 fluent_ready_i0_t2@1))) (let ((.def_103 (and .def_102 .def_100))) (let ((.def_104 (= .def_103 true))) (let ((.def_105 (=> true .def_104))) (let ((.def_106 (and .def_46 .def_105))) (let ((.def_107 (= fluent_busy_@1 false))) (let ((.def_108 (=> true .def_107))) (let ((.def_109 (and .def_20 .def_7))) (let ((.def_110 (or .def_109 fluent_treated_i0_t0@1))) (let ((.def_111 (not .def_109))) (let ((.def_112 (or .def_111 fluent_treated_i0_t1@1))) (let ((.def_113 (and .def_112 .def_110))) (let ((.def_114 (and .def_20 .def_1))) (let ((.def_115 (or .def_114 .def_113))) (let ((.def_116 (not .def_114))) (let ((.def_117 (or .def_116 fluent_treated_i0_t2@1))) (let ((.def_118 (and .def_117 .def_115))) (let ((.def_119 (= .def_118 true))) (let ((.def_120 (=> true .def_119))) (let ((.def_121 (and .def_72 .def_120 .def_108))) (let ((.def_122 (or .def_109 fluent_started_i0_t0@1))) (let ((.def_123 (or .def_111 fluent_started_i0_t1@1))) (let ((.def_124 (and .def_123 .def_122))) (let ((.def_125 (or .def_114 .def_124))) (let ((.def_126 (or .def_116 fluent_started_i0_t2@1))) (let ((.def_127 (and .def_126 .def_125))) (let ((.def_128 (= .def_127 true))) (let ((.def_129 (=> true .def_128))) (let ((.def_130 (= fluent_busy_@1 true))) (let ((.def_131 (=> true .def_130))) (let ((.def_132 (+ __z3_0 1.0))) (let ((.def_133 (= __z3_1 .def_132))) (let ((.def_134 (=> true .def_133))) (let ((.def_135 (= t@1 t@1))) (let ((.def_136 (and .def_135 .def_134 .def_131 .def_129))) (let ((.def_137 (or .def_94 fluent_started_i0_t0@0))) (let ((.def_138 (or .def_96 fluent_started_i0_t1@0))) (let ((.def_139 (and .def_138 .def_137))) (let ((.def_140 (or .def_99 .def_139))) (let ((.def_141 (or .def_101 fluent_started_i0_t2@0))) (let ((.def_142 (and .def_141 .def_140))) (let ((.def_143 (+ t@1 dur_make_treatment@1))) (let ((.def_144 (<= .def_143 t@1))) (let ((.def_145 (< (- 1.0) .def_143))) (let ((.def_146 (and .def_145 .def_144))) (let ((.def_147 (=> .def_146 .def_142))) (let ((.def_148 (or .def_109 fluent_ready_i0_t0@0))) (let ((.def_149 (or .def_111 fluent_ready_i0_t1@0))) (let ((.def_150 (and .def_149 .def_148))) (let ((.def_151 (or .def_114 .def_150))) (let ((.def_152 (or .def_116 fluent_ready_i0_t2@0))) (let ((.def_153 (and .def_152 .def_151))) (let ((.def_154 (or .def_109 fluent_started_i0_t0@0))) (let ((.def_155 (or .def_111 fluent_started_i0_t1@0))) (let ((.def_156 (and .def_155 .def_154))) (let ((.def_157 (or .def_114 .def_156))) (let ((.def_158 (or .def_116 fluent_started_i0_t2@0))) (let ((.def_159 (and .def_158 .def_157))) (let ((.def_160 (not .def_159))) (let ((.def_161 (or .def_109 fluent_treated_i0_t0@0))) (let ((.def_162 (or .def_111 fluent_treated_i0_t1@0))) (let ((.def_163 (and .def_162 .def_161))) (let ((.def_164 (or .def_114 .def_163))) (let ((.def_165 (or .def_116 fluent_treated_i0_t2@0))) (let ((.def_166 (and .def_165 .def_164))) (let ((.def_167 (not .def_166))) (let ((.def_168 (not fluent_busy_@0))) (let ((.def_169 (and .def_7 .def_30))) (let ((.def_170 (or .def_169 false))) (let ((.def_171 (not .def_169))) (let ((.def_172 (or .def_171 false))) (let ((.def_173 (and .def_172 .def_170))) (let ((.def_174 (and .def_1 .def_30))) (let ((.def_175 (or .def_174 .def_173))) (let ((.def_176 (not .def_174))) (let ((.def_177 (or .def_176 false))) (let ((.def_178 (and .def_177 .def_175))) (let ((.def_179 (and .def_21 .def_29))) (let ((.def_180 (or .def_179 .def_178))) (let ((.def_181 (not .def_179))) (let ((.def_182 (or .def_181 true))) (let ((.def_183 (and .def_182 .def_180))) (let ((.def_184 (and .def_7 .def_29))) (let ((.def_185 (or .def_184 .def_183))) (let ((.def_186 (not .def_184))) (let ((.def_187 (or .def_186 false))) (let ((.def_188 (and .def_187 .def_185))) (let ((.def_189 (and .def_1 .def_29))) (let ((.def_190 (or .def_189 .def_188))) (let ((.def_191 (not .def_189))) (let ((.def_192 (or .def_191 false))) (let ((.def_193 (and .def_192 .def_190))) (let ((.def_194 (and .def_21 .def_28))) (let ((.def_195 (or .def_194 .def_193))) (let ((.def_196 (not .def_194))) (let ((.def_197 (or .def_196 false))) (let ((.def_198 (and .def_197 .def_195))) (let ((.def_199 (and .def_7 .def_28))) (let ((.def_200 (or .def_199 .def_198))) (let ((.def_201 (not .def_199))) (let ((.def_202 (or .def_201 true))) (let ((.def_203 (and .def_202 .def_200))) (let ((.def_204 (and .def_1 .def_28))) (let ((.def_205 (or .def_204 .def_203))) (let ((.def_206 (not .def_204))) (let ((.def_207 (or .def_206 false))) (let ((.def_208 (and .def_207 .def_205))) (let ((.def_209 (= 0.0 __z3_0))) (let ((.def_210 (and .def_209 .def_208 .def_168 .def_167 .def_160 .def_153))) (let ((.def_211 (<= t@1 t@1))) (let ((.def_212 (< (- 1.0) t@1))) (let ((.def_213 (and .def_212 .def_211))) (let ((.def_214 (=> .def_213 .def_210))) (let ((.def_215 (<= dur_make_treatment@1 15.0))) (let ((.def_216 (<= 15.0 dur_make_treatment@1))) (let ((.def_217 (and .def_216 .def_215))) (let ((.def_218 (and .def_217 .def_144 .def_214 .def_147 .def_136 .def_121 .def_106))) (let ((.def_219 (=> act_make_treatment@1 .def_218))) (let ((.def_220 (<= 0.0 fluent_counter_t0@0))) (let ((.def_221 (<= fluent_counter_t2@0 31.0))) (let ((.def_222 (<= 0.0 fluent_counter_t2@0))) (let ((.def_223 (<= fluent_counter_t1@0 31.0))) (let ((.def_224 (<= 0.0 fluent_counter_t1@0))) (let ((.def_225 (<= fluent_counter_t0@0 31.0))) (let ((.def_226 (= fluent_counter_t2@0 0.0))) (let ((.def_227 (= fluent_counter_t1@0 0.0))) (let ((.def_228 (= fluent_counter_t0@0 0.0))) (let ((.def_229 (= false false))) (let ((.def_230 (= fluent_ready_i0_t2@0 false))) (let ((.def_231 (= fluent_ready_i0_t1@0 false))) (let ((.def_232 (= fluent_started_i0_t1@0 false))) (let ((.def_233 (= fluent_started_i0_t0@0 false))) (let ((.def_234 (= fluent_treated_i0_t2@0 false))) (let ((.def_235 (= fluent_treated_i0_t1@0 false))) (let ((.def_236 (= fluent_treated_i0_t0@0 false))) (let ((.def_237 (= fluent_busy_@0 false))) (let ((.def_238 (= fluent_ready_i0_t0@0 true))) (let ((.def_239 (= fluent_started_i0_t2@0 true))) (let ((.def_240 (= true true))) (let ((.def_241 (= 0.0 0.0))) (let ((.def_242 (and .def_241 .def_240 .def_240 .def_239 .def_238 .def_237 .def_236 .def_235 .def_234 .def_233 .def_232 .def_231 .def_230 .def_229 .def_229 .def_229 .def_229 .def_229 .def_229 .def_229 .def_228 .def_227 .def_226 .def_225 .def_224 .def_223 .def_222 .def_221 .def_220 .def_219 .def_93 .def_92 .def_88 .def_84 .def_80 .def_76 .def_70 .def_66 .def_62 .def_58 .def_54 .def_50 .def_44 .def_40 .def_36 .def_32 .def_31 .def_27 .def_26 .def_25 .def_24 .def_23 .def_22 .def_20 .def_19 .def_17 .def_15 .def_13 .def_11 .def_8 .def_5 .def_2))) .def_242))))))))))))))))))))))))))))))))))))))))))))))))))))))))))))))))))))))))))))))))))))))))))))))))))))))))))))))))))))))))))))))))))))))))))))))))))))))))))))))))))))))))))))))))))))))))))))))))))))))))))))))))))))))))))))))))))))))))))))))))))))
(check-sat)
